1586120
40 5 3130
5 60 7979
60 19 15596
19 49 8895
49 23 4353
23 6 16175
6 11 47990
11 66 13370
66 26 57991
26 55 61621
55 34 20835
34 46 36286
46 43 69394
43 7 52950
7 38 28523
38 67 15200
67 64 14572
64 41 28668
41 30 5056
30 25 1249
25 29 9940
29 42 15312
42 24 14670
24 61 5437
61 3 12947
3 21 17216
21 63 32196
63 16 14689
16 59 10880
59 36 8563
36 50 24707
50 28 10810
28 31 65445
31 22 39447
22 14 67712
14 52 39276
52 33 101509
33 57 88918
57 18 27906
18 10 28652
10 44 75759
44 53 84806
53 37 6554
37 62 30446
62 39 8740
39 51 11004
51 35 8926
35 68 19070
68 8 34471
8 15 6874
15 58 6904
58 9 1777
9 17 5356
17 27 1445
27 45 8214
45 65 16726
65 2 19463
2 48 7938
48 4 7248
4 20 4440
20 47 12843
47 13 9114
13 54 13536
54 1 18207
1 12 10465
12 32 4813
32 56 1427
56 40 3489
